NAME : Instance 3
COMMENT : Comment 3
TYPE : TSP
DIMENSION: 30
EDGE_WEIGHT_TYPE : EUC_2D
NODE_COORD_SECTION
  1 1830 349
  2 1937 1693
  3 48 8
  4 1613 1948
  5 1787 305
  6 1041 153
  7 1547 1793
  8 151 1552
  9 1616 1804
  10 659 709
  11 710 1753
  12 1536 1776
  13 1349 1141
  14 658 88
  15 1084 185
  16 1288 493
  17 1633 790
  18 550 1608
  19 1724 853
  20 1232 832
  21 293 1569
  22 748 297
  23 404 121
  24 1728 238
  25 616 640
  26 990 42
  27 1067 1019
  28 1779 1706
  29 777 1811
  30 275 1204
EOF
